197 181 164 104 25 71 123 19 146 
92 31 56 108 160 112 50 17 34 2 120 
152 196 180 184 74 194 81 33 39 175 
4 37 12 59 130 187 145 93 97 67 
153 6 163 43 111 198 80 158 64 
195 169 98 139 114 86 41 55 1 
140 100 9 143 38 95 91 185 
102 179 103 150 87 121 115 8 83 
182 147 133 32 151 189 125 174 141 
42 132 78 129 116 157 
156 15 171 191 58 134 126 82 66 
167 124 3 51 27 22 13 76 
162 149 170 20 46 138 186 137 11 
54 199 127 69 105 176 113 79 178 96 
28 47 14 109 101 135 75 
131 62 26 10 77 122 73 193 148 
88 173 23 117 52 106 70 154 
48 24 7 68 18 183 72 110 44 
142 57 40 16 61 192 107 60 30 36 
155 99 94 166 
165 85 128 65 21 
63 200 159 90 
172 5 35 144 
49 119 161 
45 188 29 
84 89 
177 168 53 
190 136 
118 

